SumColouring/JavaBacktracker/RandomInstances/20_0.20_2.col
c File: instances/20_0.20_2.col
c
c Description: Random graph of size 20 vertices and P(0.2) of edges between any two vertices.
p col 20 190
e 1 7
e 1 9
e 2 5
e 2 9
e 2 10
e 2 18
e 2 20
e 3 9
e 4 13
e 5 13
e 5 14
e 5 15
e 7 15
e 7 20
e 8 11
e 8 14
e 8 19
e 9 11
e 9 15
e 9 16
e 9 20
e 10 12
e 10 13
e 10 15
e 10 16
e 11 17
e 11 18
e 12 14
e 12 17
e 12 18
e 13 16
e 14 16
e 14 17
e 16 18
e 16 19