SumColouring/MiniZinc model/Experiments/20_0.20_2.col.dzn
% Data file generated from RandomInstances/20_0.20_2.col DIMACS file
size = 20;

chi = 3;

adjacency = [|0,0,0,0,0,0,1,0,1,0,0,0,0,0,0,0,0,0,0,0,
|0,0,0,0,1,0,0,0,1,1,0,0,0,0,0,0,0,1,0,1,
|0,0,0,0,0,0,0,0,1,0,0,0,0,0,0,0,0,0,0,0,
|0,0,0,0,0,0,0,0,0,0,0,0,1,0,0,0,0,0,0,0,
|0,1,0,0,0,0,0,0,0,0,0,0,1,1,1,0,0,0,0,0,
|0,0,0,0,0,0,0,0,0,0,0,0,0,0,0,0,0,0,0,0,
|1,0,0,0,0,0,0,0,0,0,0,0,0,0,1,0,0,0,0,1,
|0,0,0,0,0,0,0,0,0,0,1,0,0,1,0,0,0,0,1,0,
|1,1,1,0,0,0,0,0,0,0,1,0,0,0,1,1,0,0,0,1,
|0,1,0,0,0,0,0,0,0,0,0,1,1,0,1,1,0,0,0,0,
|0,0,0,0,0,0,0,1,1,0,0,0,0,0,0,0,1,1,0,0,
|0,0,0,0,0,0,0,0,0,1,0,0,0,1,0,0,1,1,0,0,
|0,0,0,1,1,0,0,0,0,1,0,0,0,0,0,1,0,0,0,0,
|0,0,0,0,1,0,0,1,0,0,0,1,0,0,0,1,1,0,0,0,
|0,0,0,0,1,0,1,0,1,1,0,0,0,0,0,0,0,0,0,0,
|0,0,0,0,0,0,0,0,1,1,0,0,1,1,0,0,0,1,1,0,
|0,0,0,0,0,0,0,0,0,0,1,1,0,1,0,0,0,0,0,0,
|0,1,0,0,0,0,0,0,0,0,1,1,0,0,0,1,0,0,0,0,
|0,0,0,0,0,0,0,1,0,0,0,0,0,0,0,1,0,0,0,0,
|0,1,0,0,0,0,1,0,1,0,0,0,0,0,0,0,0,0,0,0,
|];